# Solution for model sublimation_srl_ilp
# Objective value = 3.3195633581025739e+00
Z_492_0_0 1
Z_492_0_1 0
Z_492_0_2 0
Z_492_0_3 0
Z_546_0_0 0
Z_546_0_1 0
Z_546_0_2 0
Z_546_0_3 1
Z_39_0_0 0
Z_39_0_1 1
Z_39_0_2 0
Z_39_0_3 0
Z_49_0_0 0
Z_49_0_1 0
Z_49_0_2 0
Z_49_0_3 1
Z_90_0_0 0
Z_90_0_1 1
Z_90_0_2 0
Z_90_0_3 0
Z_560_0_0 0
Z_560_0_1 0
Z_560_0_2 0
Z_560_0_3 1
